p cnf 10 23
-10 -9 8 0
-10 -8 5 0
-10 8 1 0
10 -7 4 0
-10 6 -4 0
-10 2 1 0
-9 -6 5 0
9 -3 -1 0
-8 -7 3 0
-8 -6 3 0
8 5 4 0
-8 5 1 0
-8 4 -2 0
-8 4 2 0
-8 -4 -1 0
8 -3 -2 0
-7 -4 -2 0
7 -3 1 0
6 -5 4 0
-6 -5 -3 0
5 -4 -3 0
5 2 1 0
-4 3 2 0
